72
120
84	2
83	3
82	5
81	9
80	7
79	9
78	4
77	7
76	6
75	8
74	5
73	7
72	9
71	6
69	4
68	4
67	3
66	10
65	5
64	2
63	4
62	7
61	8
60	6
59	3
58	9
57	7
56	7
55	9
54	1
53	4
52	4
51	3
50	8
49	5
48	4
47	3
46	2
45	4
44	4
43	4
42	5
41	6
40	11
39	5
38	8
37	5
36	4
35	3
34	4
33	7
32	10
31	2
30	5
29	13
28	3
27	3
26	4
25	7
24	3
23	7
22	11
21	8
20	9
19	6
18	5
17	4
16	5
15	1
14	2
13	6
12	7
